language ESSENCE' 1.0
$ loaded file: carseqdata/csplib-instance-43
letting numcars=200
letting numclasses=23
letting numoptions=5
letting optMax=[1, 2, 1, 2, 1]
letting windowSize=[2, 3, 3, 5, 5]
letting numberPerClass=[17, 2, 18, 8, 1, 5, 5, 3, 11, 4, 9, 4, 40, 1, 2, 6, 3, 29, 18, 1, 9, 2, 2]
letting optionsRequired=[[0, 0, 0, 0, 1], [0, 1, 1, 0, 1], [0, 1, 0, 1, 0], [1, 0, 1, 0, 0], [0, 0, 0, 1, 1], [0, 1, 1, 0, 0], [0, 0, 1, 0, 1], [1, 1, 1, 0, 0], [1, 1, 0, 0, 0], [0, 1, 1, 1, 0], [0, 0, 1, 1, 0], [1, 1, 0, 0, 1], [0, 1, 0, 0, 0], [1, 0, 0, 1, 1], [1, 0, 0, 0, 1], [1, 0, 0, 1, 0], [0, 1, 0, 0, 1], [1, 0, 0, 0, 0], [0, 0, 0, 1, 0], [1, 0, 1, 1, 0], [0, 0, 1, 0, 0], [1, 1, 1, 0, 1], [1, 1, 0, 1, 0]]
